p cnf 55 196
-4 2 0
-4 3 0
-2 -3 4 0
1 -4 -5 0
-1 4 -5 0
1 4 5 0
-1 -4 5 0
-6 3 0
-6 3 0
-3 6 0
7 5 0
7 -6 0
-5 6 -7 0
8 -9 -10 0
-8 9 -10 0
8 9 10 0
-8 -9 10 0
-11 7 0
-11 -10 0
-7 10 11 0
-12 -8 0
-12 8 0
14 12 0
14 13 0
-12 -13 -14 0
-15 -14 0
-15 12 0
14 -12 15 0
16 11 0
16 -15 0
-11 15 -16 0
17 -14 0
17 -4 0
14 4 -17 0
19 -18 0
19 -1 0
18 1 -19 0
-20 21 -22 0
20 -21 -22 0
-20 -21 22 0
20 21 22 0
23 -22 0
23 21 0
22 -21 -23 0
-24 23 0
-24 8 0
-23 -8 24 0
-19 -24 -25 0
19 24 -25 0
-19 24 25 0
19 -24 25 0
26 17 0
26 -25 0
-17 25 -26 0
27 -26 0
27 8 0
26 -8 -27 0
8 -19 -29 0
-8 19 -29 0
8 19 29 0
-8 -19 29 0
30 17 0
30 3 0
-17 -3 -30 0
29 30 -31 0
-29 -30 -31 0
29 -30 31 0
-29 30 31 0
32 -14 0
32 31 0
14 -31 -32 0
-33 -28 0
-33 32 0
28 -32 33 0
14 -23 -34 0
-14 23 -34 0
14 23 34 0
-14 -23 34 0
35 -12 0
35 34 0
12 -34 -35 0
36 -33 0
36 35 0
33 -35 -36 0
27 -36 -37 0
-27 36 -37 0
27 36 37 0
-27 -36 37 0
-38 20 0
-38 12 0
-20 -12 38 0
39 -37 0
39 -38 0
37 38 -39 0
-2 -13 -40 0
2 13 -40 0
-2 13 40 0
2 -13 40 0
-29 -40 -41 0
29 40 -41 0
-29 40 41 0
29 -40 41 0
-42 41 0
-42 19 0
-41 -19 42 0
39 -42 -43 0
-39 42 -43 0
39 42 43 0
-39 -42 43 0
16 -43 -44 0
-16 43 -44 0
16 43 44 0
-16 -43 44 0
-3 8 -45 0
3 -8 -45 0
-3 -8 45 0
3 8 45 0
-45 -8 -46 0
45 8 -46 0
-45 8 46 0
45 -8 46 0
47 -8 0
47 -22 0
8 22 -47 0
-46 -47 -48 0
46 47 -48 0
-46 47 48 0
46 -47 48 0
-49 -21 0
-49 29 0
21 -29 49 0
50 49 0
50 -25 0
-49 25 -50 0
51 -34 0
51 -34 0
34 -51 0
51 -45 -52 0
-51 45 -52 0
51 45 52 0
-51 -45 52 0
53 50 0
53 52 0
-50 -52 -53 0
54 48 0
54 -53 0
-48 53 -54 0
-55 44 0
-55 54 0
-44 -54 55 0
19 21 -12 0
21 46 37 -3 -28 18 0
-21 -44 14 0
10 -47 34 0
-40 24 -19 39 7 0
34 14 27 6 -46 0
-17 6 -16 -37 30 0
-42 -8 0
36 -20 -15 -9 -48 37 0
6 -27 0
-5 -23 36 0
-41 45 30 0
-35 -41 46 31 -33 0
-33 -40 52 -36 -20 0
17 49 36 0
-24 12 0
-37 25 -3 0
-14 8 43 29 0
45 17 38 -50 35 19 0
45 27 -38 -49 0
-11 -18 22 0
-51 -43 -26 -18 -8 0
34 10 48 0
-23 -7 -51 31 -21 -16 0
-20 -7 19 -4 17 0
-10 -20 -13 -40 27 -45 0
18 -7 23 -15 -39 -33 0
33 14 0
-13 34 0
-9 -43 0
-39 10 0
-43 14 25 -15 -6 48 0
37 47 -54 0
52 -43 48 0
33 7 0
-52 -39 50 5 -51 14 0
10 -28 -15 9 0
3 -21 -18 -37 0
19 39 -35 0
47 -28 -9 22 -24 -14 0
-9 -45 0
42 7 0
52 15 28 -32 23 0
51 -16 -35 -9 30 0
44 29 -36 -52 13 0
55 0
